42691220727192601085010,2,1,2,05,11,1,2,010,14,1,2,07,7,1,2,07,13,1,2,02,3,1,2,05,3,1,2,010,9,1,2,03,5,1,2,011,7,1,2,02,13,1,2,015,10,1,2,07,11,1,2,08,7,1,2,06,13,1,2,06,7,1,2,011,8,1,2,04,15,1,2,010,15,1,2,015,15,1,2,04,4,1,2,08,6,1,2,013,12,1,2,03,9,1,2,06,4,1,2,02,7,1,2,08,8,1,2,06,5,1,2,03,7,1,2,012,8,1,2,03,13,1,2,08,13,1,2,013,14,1,2,015,14,1,2,08,5,1,2,013,15,1,2,07,2,1,2,07,8,1,2,013,4,1,2,012,4,1,2,012,6,1,2,011,11,1,2,015,11,1,2,011,8,1,2,02,10,1,2,07,7,1,2,013,3,1,2,014,13,1,2,04,1,1,2,015,9,1,2,0